; benchmark generated from python API
(set-info :status unknown)
(declare-datatypes ((RealState 0)) (((RMk1 (rval1 Real)) (RMk2 (rval2 Real)))))
 (assert
 (forall ((|v9:0| Real) )(exists ((|v8:1_st| RealState) (val!255 Real) )(forall ((|v7:2| Real) )(exists ((|v6:3_st| RealState) (val!256 Real) )(forall ((|v5:4| Real) )(exists ((|v4:5_st| RealState) (val!257 Real) )(forall ((|v3:6| Real) )(exists ((|v2:7_st| RealState) (val!258 Real) )(forall ((|v1:8| Real) )(exists ((|v0:9_st| RealState) (val!259 Real) )(let ((?x456 (- 6.0)))
 (let ((?x1172 (* ?x456 |v1:8|)))
 (let (($x1135 (<= (+ (+ (* 14.0 (rval2 |v8:1_st|)) (* 0.0 (rval2 |v4:5_st|))) ?x1172) 19.0)))
 (let ((?x32 (+ (+ (* (- 4.0) (rval2 |v4:5_st|)) (* (- 18.0) (rval2 |v2:7_st|))) (* (- 19.0) (rval2 |v8:1_st|)))))
 (let ((?x811 (- 20.0)))
 (let (($x1272 (<= (+ (+ (* 0.0 |v3:6|) (* 17.0 |v3:6|)) (* (- 8.0) |v9:0|)) ?x811)))
 (let ((?x1002 (+ (+ (* 13.0 |v1:8|) (* (- 5.0) (rval2 |v8:1_st|))) (* (- 3.0) (rval2 |v6:3_st|)))))
 (let ((?x1342 (- 10.0)))
 (let ((?x488 (+ (+ (* (- 15.0) (rval2 |v6:3_st|)) (* 19.0 |v5:4|)) (* (- 12.0) |v9:0|))))
 (let ((?x959 (+ (+ (* (- 18.0) (rval2 |v2:7_st|)) (* 15.0 (rval2 |v4:5_st|))) (* (- 2.0) (rval2 |v8:1_st|)))))
 (let ((?x991 (+ (+ (* (- 12.0) (rval2 |v0:9_st|)) (* 12.0 (rval2 |v0:9_st|))) (* 9.0 |v5:4|))))
 (let ((?x973 (rval2 |v4:5_st|)))
 (let ((?x1056 (* 12.0 ?x973)))
 (let (($x544 (and (<= (+ (+ (* 19.0 |v3:6|) (* 8.0 (rval2 |v0:9_st|))) ?x1056) 2.0) (<= ?x991 17.0))))
 (let (($x888 (and (and $x544 (or (<= ?x959 20.0) (<= ?x488 ?x1342))) (or (and (<= ?x1002 14.0) $x1272) (and (<= ?x32 20.0) $x1135)))))
 (let ((?x864 (- 3.0)))
 (let (($x411 (<= (+ (+ ?x1056 (* (- 7.0) |v9:0|)) (* (- 9.0) (rval2 |v6:3_st|))) ?x864)))
 (let (($x247 (<= (+ (+ (* 13.0 (rval2 |v0:9_st|)) (* (- 2.0) |v9:0|)) (* ?x864 |v7:2|)) 7.0)))
 (let ((?x93 (rval2 |v8:1_st|)))
 (let ((?x1153 (* 6.0 ?x93)))
 (let ((?x622 (- 18.0)))
 (let ((?x1005 (+ (+ (* (- 14.0) |v1:8|) (* (- 12.0) (rval2 |v2:7_st|))) (* 4.0 (rval2 |v0:9_st|)))))
 (let (($x922 (and (<= ?x1005 ?x622) (<= (+ (+ (* (- 16.0) |v3:6|) (* (- 15.0) ?x973)) ?x1153) 19.0))))
 (let ((?x620 (- 15.0)))
 (let (($x151 (<= (+ (+ (* 2.0 |v7:2|) (* (- 19.0) ?x973)) (* (- 4.0) ?x93)) ?x620)))
 (let ((?x722 (+ (+ (* 17.0 (rval2 |v6:3_st|)) (* 19.0 |v7:2|)) (* 6.0 (rval2 |v6:3_st|)))))
 (let (($x841 (or (<= ?x722 12.0) (<= (+ (+ (* 5.0 (rval2 |v0:9_st|)) |v1:8|) (* ?x811 ?x93)) (- 8.0)))))
 (let ((?x106 (+ (+ (* (- 8.0) |v1:8|) (* 13.0 |v9:0|)) (* (- 11.0) (rval2 |v2:7_st|)))))
 (let ((?x933 (- 13.0)))
 (let ((?x399 (+ (+ (* (- 19.0) (rval2 |v2:7_st|)) (* 15.0 (rval2 |v0:9_st|))) (* ?x456 (rval2 |v2:7_st|)))))
 (let ((?x451 (- 4.0)))
 (let (($x810 (<= (+ (+ (* (- 17.0) ?x93) (* 11.0 ?x973)) (* (- 11.0) |v9:0|)) ?x451)))
 (let (($x1298 (or (<= (+ (+ (* ?x933 |v1:8|) (* ?x456 |v9:0|)) (* 0.0 |v5:4|)) 18.0) (<= (+ (+ (* 18.0 |v3:6|) (* 5.0 |v7:2|)) (* 11.0 |v7:2|)) ?x620))))
 (let ((?x325 (- 7.0)))
 (let (($x250 (<= (+ (+ (* (- 11.0) ?x973) (* ?x451 |v9:0|)) (* (- 9.0) |v9:0|)) ?x325)))
 (let ((?x331 (- 2.0)))
 (let (($x1114 (<= (+ (+ (* 20.0 |v9:0|) (* ?x620 (rval2 |v0:9_st|))) (* 0.0 |v1:8|)) ?x331)))
 (let (($x319 (<= (+ (+ (* (- 17.0) |v9:0|) (* 15.0 |v1:8|)) (* 13.0 (rval2 |v2:7_st|))) 4.0)))
 (let ((?x115 (- 1.0)))
 (let (($x1184 (<= (+ (+ (* (- 17.0) |v3:6|) (* 3.0 ?x93)) (* 3.0 (rval2 |v0:9_st|))) ?x115)))
 (let (($x924 (<= (+ (+ (* 13.0 |v5:4|) (* 3.0 (rval2 |v6:3_st|))) (* ?x325 |v1:8|)) 14.0)))
 (let ((?x33 (- 5.0)))
 (let (($x669 (<= (+ (+ (* 2.0 ?x93) (* 20.0 ?x973)) (* (- 12.0) |v1:8|)) ?x33)))
 (let (($x513 (or (<= (+ (+ (* ?x811 |v9:0|) (* ?x33 ?x973)) (* 16.0 |v7:2|)) 4.0) $x669)))
 (let (($x678 (and (or (and $x513 $x924) (and (and $x1184 $x319) (and $x1114 $x250))) (or (or $x1298 (and $x810 (<= ?x399 ?x933))) (<= ?x106 8.0)))))
 (let (($x772 (and $x678 (or (and (and $x841 $x151) (and $x922 (or $x247 $x411))) $x888))))
 (let (($x945 (not (= |v0:9_st| (RMk1 val!259)))))
 (let (($x729 (not (= |v2:7_st| (RMk1 val!258)))))
 (let (($x655 (not (= |v4:5_st| (RMk1 val!257)))))
 (let (($x501 (not (= |v6:3_st| (RMk1 val!256)))))
 (let (($x699 (not (= |v8:1_st| (RMk1 val!255)))))
 (and $x699 $x501 $x655 $x729 $x945 $x772)))))))))))))))))))))))))))))))))))))))))))))))))))))
 )
 )
 )
 )
 )
 )
 )
 )
 )
 )
(check-sat)
